114.30 38.02
115.20 38.24
115.30 38.51
116.24 39.06
116.52 38.18
117.57 40.59
115.00 38.30
117.58 40.11
115.51 39.20
114.50 38.02
114.28 36.36
116.05 38.26
115.42 37.44
117.21 38.21
115.02 38.02
115.33 37.34
116.42 39.31
114.19 38.04
115.23 37.22
119.35 39.55
116.07 38.42
117.04 39.58
114.30 36.51
115.32 38.01
118.11 39.36
114.11 36.42
114.30 37.04
115.12 37.54
114.41 38.20
114.53 40.48